p cnf 12 50 
-12 9 -10 0
-8 -12 4 0
-10 9 -3 0
5 -11 -2 0
-9 10 2 0
12 -8 4 0
3 8 -4 0
7 4 -10 0
7 -10 2 0
-7 -1 5 0
-5 11 -1 0
-7 -1 12 0
3 -11 -12 0
5 -7 10 0
11 4 3 0
12 9 -8 0
4 -7 1 0
-8 -10 -4 0
-8 -7 -5 0
-12 5 6 0
11 -5 6 0
10 4 12 0
11 -4 2 0
11 -6 1 0
-5 -6 -12 0
-9 7 -5 0
9 -5 11 0
-7 -10 8 0
12 -1 -11 0
12 -5 -3 0
2 4 -9 0
12 -11 -4 0
-5 -10 4 0
-9 -5 4 0
7 -5 4 0
12 -1 9 0
-5 -6 -2 0
-8 5 -2 0
6 -2 -5 0
6 9 -2 0
-12 6 4 0
-10 6 4 0
-2 -12 5 0
-4 -8 -5 0
-7 4 -8 0
7 6 5 0
-3 -11 -10 0
8 -10 -9 0
-1 5 -2 0
-6 -5 12 0
